100
32
9
5
7
20
2
11
13
16
10
2
1
24
28
1
3
4
2
23
1
1
3
26
10
20
3
18
2
7
17
1
7
19
19
1
2
3
2
1
1
17
17
18
20
2
3
3
3
3
8
3
1
5
2
1
1
4
4
1
3
1
1
1
3
3
2
2
4
1
3
1
3
7
1
2
1
2
2
16
3
1
2
19
3
1
1
3
1
3
1
2
2
2
1
3
1
19
3
5
2
1